36 24
16 687
20 431
12 843
4 251
9 769
19 574
16 769
10 514
11 581
11 815
16 545
4 23
2 607
16 265
23 456
20 370
14 196
13 375
12 166
12 176
5 656
12 390
20 759
3 757
14 306
3 689
23 146
21 176
5 648
2 600
3 907
23 358
23 355
16 276
18 945
12 491
